(declare-fun Constructed_Argument_t () String)
(declare-fun CreateAsClass () Bool)
(declare-fun Constructed_Argument () Real)
(declare-fun ExpandObjSwitcher () Real)
(declare-fun Constructed_Argument_2_t () String)
(declare-fun Constructed_Argument_3_t () String)
(declare-fun CreateAsClass_2 () Bool)
(declare-fun Constructed_Argument_2_elements_concrete_0_t () String)
(declare-fun Constructed_Argument_2_elements__name_1_t () String)
(declare-fun Constructed_Argument_2_elements__core_2_t () String)
(declare-fun Constructed_Argument_2_elements__set_3_t () String)
(declare-fun Constructed_Argument_2_elements__lastIndex_4_t () String)
(declare-fun Constructed_Argument_2_elements_undefined_5_t () String)
(declare-fun Constructed_Argument_2_elements_undefined_5_Array_Length () Int)
(declare-fun Constructed_Argument_4_t () String)
(declare-fun Constructed_Argument_5_t () String)
(assert (= Constructed_Argument_t "number"))
(assert (not CreateAsClass))
(assert (not (= Constructed_Argument 0.0)))
(assert (= ExpandObjSwitcher 4.0))
(assert (= Constructed_Argument_2_t "object"))
(assert (not (= Constructed_Argument_3_t "string")))
(assert (not (= Constructed_Argument_3_t "number")))
(assert (not (= Constructed_Argument_3_t "boolean")))
(assert (not (= Constructed_Argument_3_t "object")))
(assert (not (= Constructed_Argument_3_t "array_number")))
(assert (not (= Constructed_Argument_3_t "array_string")))
(assert (not (= Constructed_Argument_3_t "array_bool")))
(assert (not (= Constructed_Argument_3_t "null")))
(assert (not CreateAsClass_2))
(assert (= Constructed_Argument_2_elements_concrete_0_t "object"))
(assert (not (= Constructed_Argument_2_elements__name_1_t "string")))
(assert (not (= Constructed_Argument_2_elements__name_1_t "number")))
(assert (not (= Constructed_Argument_2_elements__name_1_t "boolean")))
(assert (not (= Constructed_Argument_2_elements__name_1_t "object")))
(assert (not (= Constructed_Argument_2_elements__name_1_t "array_number")))
(assert (not (= Constructed_Argument_2_elements__name_1_t "array_string")))
(assert (not (= Constructed_Argument_2_elements__name_1_t "array_bool")))
(assert (not (= Constructed_Argument_2_elements__name_1_t "null")))
(assert (not (= Constructed_Argument_2_elements__core_2_t "string")))
(assert (not (= Constructed_Argument_2_elements__core_2_t "number")))
(assert (not (= Constructed_Argument_2_elements__core_2_t "boolean")))
(assert (not (= Constructed_Argument_2_elements__core_2_t "object")))
(assert (not (= Constructed_Argument_2_elements__core_2_t "array_number")))
(assert (not (= Constructed_Argument_2_elements__core_2_t "array_string")))
(assert (not (= Constructed_Argument_2_elements__core_2_t "array_bool")))
(assert (not (= Constructed_Argument_2_elements__core_2_t "null")))
(assert (not (= Constructed_Argument_2_elements__set_3_t "string")))
(assert (not (= Constructed_Argument_2_elements__set_3_t "number")))
(assert (not (= Constructed_Argument_2_elements__set_3_t "boolean")))
(assert (not (= Constructed_Argument_2_elements__set_3_t "object")))
(assert (not (= Constructed_Argument_2_elements__set_3_t "array_number")))
(assert (not (= Constructed_Argument_2_elements__set_3_t "array_string")))
(assert (not (= Constructed_Argument_2_elements__set_3_t "array_bool")))
(assert (not (= Constructed_Argument_2_elements__set_3_t "null")))
(assert (not (= Constructed_Argument_2_elements__lastIndex_4_t "string")))
(assert (not (= Constructed_Argument_2_elements__lastIndex_4_t "number")))
(assert (not (= Constructed_Argument_2_elements__lastIndex_4_t "boolean")))
(assert (not (= Constructed_Argument_2_elements__lastIndex_4_t "object")))
(assert (not (= Constructed_Argument_2_elements__lastIndex_4_t "array_number")))
(assert (not (= Constructed_Argument_2_elements__lastIndex_4_t "array_string")))
(assert (not (= Constructed_Argument_2_elements__lastIndex_4_t "array_bool")))
(assert (not (= Constructed_Argument_2_elements__lastIndex_4_t "null")))
(assert (= Constructed_Argument_2_elements_undefined_5_t "array_number"))
(assert (>= Constructed_Argument_2_elements_undefined_5_Array_Length 0))
(assert (not (<= (to_real Constructed_Argument_2_elements_undefined_5_Array_Length) 0.0)))
(assert (not (= Constructed_Argument_4_t "string")))
(assert (not (= Constructed_Argument_4_t "number")))
(assert (not (= Constructed_Argument_4_t "boolean")))
(assert (not (= Constructed_Argument_4_t "object")))
(assert (not (= Constructed_Argument_4_t "array_number")))
(assert (not (= Constructed_Argument_4_t "array_string")))
(assert (not (= Constructed_Argument_4_t "array_bool")))
(assert (not (= Constructed_Argument_4_t "null")))
(assert (not (<= (to_real Constructed_Argument_2_elements_undefined_5_Array_Length) 1.0)))
(assert (not (= Constructed_Argument_5_t "string")))
(assert (not (= Constructed_Argument_5_t "number")))
(assert (not (= Constructed_Argument_5_t "boolean")))
(assert (not (= Constructed_Argument_5_t "object")))
(assert (not (= Constructed_Argument_5_t "array_number")))
(assert (not (= Constructed_Argument_5_t "array_string")))
(assert (not (= Constructed_Argument_5_t "array_bool")))
(assert (not (= Constructed_Argument_5_t "null")))
(assert (not (<= (to_real Constructed_Argument_2_elements_undefined_5_Array_Length) 2.0)))
(check-sat)
